max:+ x0 + x1 + x2 + x3 + x4 + x5 + x6 + x7 + x8 + x9 + x10 + x11 + x12 + x13 + x14 + x15 + x16 + x17 + x18 + x19 + x20 + x21 + x22 + x23 + x24 ;

 /* sigma variables*/
x0 = 1000.0;
x1 = x0 + + 0.16 x9+ 0.16 x13+ 0.16 x17+ 0.16 x21+ 1600.0;
x2 = x1 + + 0.16 x5+ 0.16 x14+ 0.16 x18+ 0.16 x22+ 1600.0;
x3 = x2 + + 0.16 x6+ 0.16 x10+ 0.16 x19+ 0.16 x23+ 1600.0;
x4 = x3 + + 0.16 x7+ 0.16 x11+ 0.16 x15+ 0.16 x24+ 1600.0;
x5 = 1000.0;
x6 = x5 + + 0.16 x1+ 0.16 x14+ 0.16 x18+ 0.16 x22+ 1600.0;
x7 = x6 + + 0.16 x2+ 0.16 x10+ 0.16 x19+ 0.16 x23+ 1600.0;
x8 = x7 + + 0.16 x3+ 0.16 x11+ 0.16 x15+ 0.16 x24+ 1600.0;
x9 = x8 + + 0.16 x4+ 0.16 x12+ 0.16 x16+ 0.16 x20+ 1600.0;
x10 = 1000.0;
x11 = x10 + + 0.16 x2+ 0.16 x6+ 0.16 x19+ 0.16 x23+ 1600.0;
x12 = x11 + + 0.16 x3+ 0.16 x7+ 0.16 x15+ 0.16 x24+ 1600.0;
x13 = x12 + + 0.16 x4+ 0.16 x8+ 0.16 x16+ 0.16 x20+ 1600.0;
x14 = x13 + + 0.16 x0+ 0.16 x9+ 0.16 x17+ 0.16 x21+ 1600.0;
x15 = 1000.0;
x16 = x15 + + 0.16 x3+ 0.16 x7+ 0.16 x11+ 0.16 x24+ 1600.0;
x17 = x16 + + 0.16 x4+ 0.16 x8+ 0.16 x12+ 0.16 x20+ 1600.0;
x18 = x17 + + 0.16 x0+ 0.16 x9+ 0.16 x13+ 0.16 x21+ 1600.0;
x19 = x18 + + 0.16 x1+ 0.16 x5+ 0.16 x14+ 0.16 x22+ 1600.0;
x20 = 1000.0;
x21 = x20 + + 0.16 x4+ 0.16 x8+ 0.16 x12+ 0.16 x16+ 1600.0;
x22 = x21 + + 0.16 x0+ 0.16 x9+ 0.16 x13+ 0.16 x17+ 1600.0;
x23 = x22 + + 0.16 x1+ 0.16 x5+ 0.16 x14+ 0.16 x18+ 1600.0;
x24 = x23 + + 0.16 x2+ 0.16 x6+ 0.16 x10+ 0.16 x19+ 1600.0;
